DIMACS_lns/graph-1000-135.col
p edge 1000 1833
e 1 68
e 1 581
e 1 702
e 2 698
e 2 781
e 2 172
e 4 889
e 4 165
e 4 579
e 4 632
e 5 840
e 5 903
e 5 619
e 6 947
e 6 859
e 6 251
e 6 67
e 7 240
e 7 98
e 7 689
e 7 415
e 8 912
e 8 1000
e 8 771
e 10 862
e 10 539
e 10 662
e 11 789
e 11 856
e 11 427
e 11 528
e 11 932
e 11 46
e 13 86
e 13 542
e 13 978
e 15 544
e 15 225
e 15 151
e 15 942
e 15 199
e 15 782
e 18 693
e 18 715
e 18 134
e 18 758
e 18 565
e 18 420
e 19 631
e 19 190
e 19 749
e 20 999
e 20 299
e 20 293
e 20 945
e 21 42
e 21 94
e 21 117
e 22 139
e 22 619
e 22 480
e 22 671
e 22 233
e 24 681
e 24 532
e 24 734
e 25 209
e 25 974
e 25 483
e 25 76
e 25 407
e 26 379
e 26 244
e 26 311
e 27 107
e 27 713
e 27 413
e 27 657
e 28 157
e 28 351
e 28 380
e 30 80
e 30 413
e 30 777
e 31 583
e 31 614
e 31 673
e 31 68
e 32 573
e 32 679
e 32 863
e 32 381
e 32 64
e 32 82
e 32 323
e 32 793
e 32 778
e 32 223
e 33 719
e 33 414
e 33 941
e 33 587
e 33 662
e 34 749
e 34 377
e 34 858
e 34 257
e 34 963
e 34 362
e 35 419
e 35 748
e 35 56
e 35 215
e 35 809
e 35 509
e 36 698
e 36 618
e 36 868
e 36 928
e 36 849
e 36 841
e 36 493
e 37 447
e 37 690
e 37 470
e 37 917
e 37 754
e 37 361
e 37 462
e 38 79
e 38 973
e 38 436
e 38 349
e 39 614
e 39 943
e 39 157
e 39 571
e 41 85
e 41 919
e 41 997
e 41 618
e 41 918
e 41 511
e 42 392
e 42 656
e 42 552
e 43 595
e 43 206
e 43 241
e 43 966
e 43 468
e 45 203
e 45 228
e 45 819
e 45 517
e 46 202
e 46 530
e 46 343
e 46 86
e 48 241
e 48 560
e 48 169
e 49 665
e 49 328
e 49 381
e 53 746
e 53 930
e 53 72
e 54 322
e 54 624
e 54 299
e 55 605
e 55 412
e 55 222
e 56 637
e 56 244
e 56 655
e 56 87
e 57 598
e 57 997
e 57 660
e 57 327
e 57 622
e 57 554
e 57 714
e 57 290
e 58 807
e 58 304
e 58 649
e 58 90
e 58 466
e 60 237
e 60 265
e 60 486
e 60 975
e 61 957
e 61 259
e 61 336
e 61 646
e 61 435
e 61 905
e 61 489
e 63 441
e 63 450
e 63 435
e 63 302
e 63 443
e 63 139
e 64 431
e 64 995
e 64 445
e 66 429
e 66 888
e 66 168
e 67 866
e 67 682
e 67 713
e 67 401
e 68 999
e 68 218
e 68 384
e 68 591
e 68 536
e 68 764
e 69 666
e 69 874
e 69 459
e 70 747
e 70 973
e 70 389
e 71 266
e 71 732
e 71 182
e 71 764
e 71 886
e 72 487
e 72 853
e 72 420
e 72 177
e 72 768
e 72 967
e 72 199
e 73 707
e 73 573
e 73 774
e 73 288
e 74 720
e 74 251
e 74 410
e 75 993
e 75 562
e 75 377
e 76 372
e 76 712
e 76 246
e 76 759
e 76 943
e 76 356
e 76 228
e 76 511
e 77 245
e 77 780
e 77 924
e 77 140
e 77 609
e 77 939
e 77 787
e 79 940
e 79 172
e 79 260
e 79 895
e 80 783
e 80 651
e 80 245
e 80 691
e 80 706
e 81 693
e 81 255
e 81 766
e 81 430
e 81 688
e 82 841
e 82 633
e 82 984
e 83 904
e 83 320
e 83 753
e 83 301
e 85 358
e 85 273
e 86 122
e 86 769
e 86 219
e 86 520
e 86 609
e 86 238
e 87 718
e 87 300
e 87 670
e 87 969
e 89 999
e 89 273
e 89 418
e 89 356
e 89 497
e 89 724
e 89 422
e 90 997
e 90 778
e 90 590
e 90 880
e 90 954
e 91 788
e 91 997
e 91 714
e 91 671
e 91 519
e 93 969
e 93 631
e 93 371
e 93 294
e 93 192
e 94 566
e 94 419
e 95 315
e 95 168
e 95 846
e 95 769
e 95 857
e 96 128
e 96 738
e 96 759
e 97 355
e 97 729
e 97 800
e 97 509
e 98 223
e 98 431
e 99 934
e 99 199
e 99 746
e 99 657
e 100 400
e 100 176
e 100 288
e 100 301
e 100 677
e 101 880
e 101 669
e 101 873
e 101 214
e 102 526
e 102 326
e 102 642
e 102 383
e 103 116
e 103 514
e 103 399
e 104 693
e 104 882
e 104 436
e 104 237
e 104 561
e 104 592
e 105 543
e 105 294
e 105 240
e 107 565
e 107 934
e 107 520
e 107 112
e 108 199
e 108 150
e 108 418
e 108 364
e 108 309
e 108 722
e 108 998
e 110 946
e 110 251
e 110 734
e 110 627
e 111 293
e 111 789
e 111 424
e 111 292
e 111 236
e 111 126
e 112 574
e 112 369
e 112 814
e 112 444
e 112 560
e 112 148
e 113 129
e 113 946
e 113 478
e 113 180
e 115 419
e 115 859
e 115 229
e 116 691
e 116 120
e 116 875
e 117 566
e 117 385
e 117 777
e 117 849
e 117 961
e 117 995
e 117 341
e 117 196
e 117 187
e 119 917
e 119 851
e 119 392
e 119 812
e 119 313
e 120 405
e 120 858
e 120 976
e 120 131
e 120 223
e 121 652
e 121 228
e 121 459
e 121 160
e 121 278
e 121 303
e 121 324
e 122 640
e 122 581
e 123 993
e 123 390
e 123 811
e 123 384
e 125 729
e 125 134
e 125 233
e 125 623
e 126 316
e 126 439
e 126 282
e 126 381
e 126 591
e 126 231
e 127 639
e 127 245
e 127 371
e 127 683
e 128 802
e 128 213
e 128 775
e 128 923
e 129 819
e 129 351
e 129 739
e 129 259
e 129 945
e 129 363
e 129 562
e 129 571
e 130 684
e 130 248
e 130 523
e 130 285
e 131 587
e 131 576
e 131 779
e 133 788
e 133 689
e 133 638
e 134 860
e 134 525
e 134 364
e 134 872
e 134 571
e 134 473
e 136 643
e 136 290
e 136 852
e 136 487
e 138 774
e 138 201
e 138 926
e 138 955
e 138 203
e 139 277
e 139 862
e 139 156
e 139 926
e 139 978
e 140 482
e 140 969
e 140 251
e 142 811
e 142 187
e 142 802
e 142 539
e 142 192
e 142 514
e 145 373
e 145 183
e 145 610
e 145 246
e 146 909
e 146 550
e 146 512
e 147 212
e 147 590
e 147 414
e 147 658
e 148 372
e 148 629
e 148 423
e 148 391
e 148 964
e 148 419
e 149 420
e 149 831
e 149 219
e 149 945
e 149 390
e 149 377
e 150 523
e 150 906
e 150 507
e 151 761
e 151 685
e 152 809
e 152 896
e 152 306
e 152 639
e 152 613
e 152 242
e 153 868
e 153 464
e 153 808
e 153 931
e 153 383
e 153 1000
e 153 672
e 156 635
e 156 963
e 157 477
e 157 794
e 157 546
e 157 234
e 157 378
e 157 655
e 158 852
e 158 331
e 158 935
e 158 513
e 158 953
e 160 543
e 160 265
e 160 934
e 161 778
e 161 552
e 161 214
e 165 417
e 165 436
e 166 304
e 166 781
e 166 882
e 166 780
e 168 557
e 168 184
e 168 697
e 169 638
e 169 804
e 169 609
e 169 624
e 170 941
e 170 681
e 170 952
e 171 380
e 171 739
e 171 832
e 171 811
e 172 964
e 172 324
e 172 482
e 172 622
e 174 846
e 174 507
e 174 914
e 175 216
e 175 906
e 175 753
e 176 748
e 176 632
e 176 845
e 176 631
e 177 755
e 177 285
e 177 343
e 178 920
e 178 707
e 178 966
e 180 700
e 180 831
e 182 746
e 182 544
e 183 767
e 183 277
e 183 658
e 184 547
e 184 976
e 184 482
e 185 644
e 185 927
e 185 659
e 187 832
e 187 238
e 187 479
e 187 386
e 187 897
e 187 855
e 190 192
e 190 469
e 190 323
e 191 759
e 191 392
e 191 882
e 192 947
e 192 968
e 192 932
e 192 687
e 193 252
e 193 484
e 193 994
e 194 379
e 194 511
e 194 311
e 194 216
e 194 530
e 196 270
e 196 695
e 196 637
e 197 300
e 197 259
e 197 311
e 199 552
e 199 863
e 200 947
e 200 789
e 200 577
e 200 203
e 201 506
e 201 720
e 201 644
e 201 768
e 201 419
e 201 586
e 201 515
e 201 289
e 201 734
e 201 436
e 202 512
e 202 215
e 202 868
e 202 488
e 203 609
e 203 639
e 203 528
e 203 853
e 203 636
e 204 968
e 204 568
e 204 636
e 204 373
e 205 323
e 205 915
e 205 539
e 205 642
e 205 989
e 206 779
e 206 883
e 206 896
e 206 454
e 208 872
e 208 977
e 208 623
e 208 919
e 209 282
e 209 413
e 209 978
e 209 862
e 210 939
e 210 459
e 210 352
e 211 926
e 211 753
e 211 539
e 211 347
e 211 342
e 211 625
e 212 839
e 212 829
e 212 302
e 212 693
e 212 947
e 213 509
e 213 946
e 213 754
e 213 551
e 213 769
e 213 360
e 214 963
e 215 354
e 216 494
e 218 436
e 218 834
e 218 530
e 218 342
e 218 908
e 219 849
e 219 565
e 222 498
e 222 765
e 223 684
e 223 644
e 223 489
e 225 349
e 225 843
e 225 939
e 228 639
e 228 738
e 228 522
e 228 851
e 229 743
e 229 642
e 229 300
e 230 562
e 230 641
e 230 509
e 230 603
e 230 483
e 230 1000
e 231 352
e 231 890
e 231 720
e 232 697
e 232 610
e 232 285
e 232 621
e 232 492
e 232 363
e 233 673
e 233 568
e 233 974
e 233 501
e 233 642
e 233 527
e 233 273
e 234 633
e 234 542
e 235 993
e 235 720
e 235 309
e 236 871
e 236 374
e 236 856
e 237 782
e 237 460
e 238 372
e 240 380
e 240 798
e 241 882
e 241 859
e 241 695
e 242 299
e 242 505
e 242 969
e 242 690
e 243 614
e 243 974
e 243 682
e 243 311
e 243 777
e 243 507
e 243 849
e 243 660
e 244 356
e 244 706
e 244 601
e 244 995
e 244 900
e 245 310
e 246 399
e 246 407
e 246 631
e 246 543
e 246 625
e 248 270
e 248 824
e 248 782
e 248 769
e 248 652
e 250 999
e 250 650
e 250 681
e 251 371
e 252 794
e 252 323
e 253 589
e 253 573
e 253 453
e 253 288
e 254 995
e 254 979
e 254 787
e 254 713
e 255 499
e 255 948
e 255 502
e 255 857
e 255 349
e 257 779
e 257 466
e 259 460
e 259 673
e 260 767
e 260 609
e 260 991
e 261 802
e 261 640
e 261 886
e 261 790
e 264 445
e 264 291
e 264 697
e 265 357
e 265 522
e 265 556
e 265 489
e 265 605
e 266 775
e 266 582
e 270 461
e 270 413
e 270 590
e 271 953
e 271 789
e 271 795
e 271 920
e 273 384
e 273 365
e 273 692
e 273 978
e 273 381
e 274 638
e 274 311
e 274 930
e 274 696
e 274 473
e 274 621
e 274 633
e 277 278
e 278 623
e 278 974
e 278 766
e 278 730
e 279 785
e 279 317
e 279 849
e 279 610
e 279 871
e 282 680
e 282 696
e 282 687
e 284 316
e 284 633
e 284 952
e 285 646
e 285 354
e 286 477
e 286 463
e 286 905
e 286 493
e 287 374
e 287 617
e 287 831
e 287 334
e 287 874
e 287 512
e 289 882
e 289 771
e 289 427
e 289 312
e 289 473
e 289 897
e 290 968
e 290 492
e 291 840
e 291 576
e 291 410
e 291 463
e 292 357
e 292 904
e 292 419
e 293 780
e 293 462
e 294 976
e 294 591
e 294 628
e 295 732
e 295 969
e 295 469
e 296 782
e 296 750
e 296 814
e 297 983
e 297 850
e 297 305
e 299 816
e 301 451
e 301 834
e 301 514
e 301 413
e 301 716
e 301 883
e 301 550
e 302 927
e 302 413
e 302 716
e 302 796
e 302 781
e 303 993
e 303 565
e 304 344
e 304 489
e 305 418
e 305 880
e 306 820
e 306 561
e 306 400
e 306 718
e 306 623
e 306 317
e 306 330
e 308 722
e 308 766
e 308 952
e 308 367
e 309 816
e 309 502
e 309 517
e 310 631
e 310 314
e 310 650
e 311 635
e 311 526
e 311 494
e 311 446
e 312 823
e 312 328
e 313 365
e 313 837
e 314 856
e 314 902
e 315 860
e 315 625
e 316 492
e 316 550
e 316 761
e 316 322
e 316 718
e 317 401
e 317 823
e 317 700
e 317 978
e 317 437
e 318 803
e 318 736
e 318 486
e 318 872
e 318 666
e 320 587
e 320 875
e 320 823
e 322 587
e 322 454
e 322 448
e 323 367
e 323 949
e 324 608
e 324 852
e 326 435
e 326 401
e 327 795
e 327 768
e 328 643
e 328 767
e 328 586
e 328 565
e 328 687
e 328 793
e 328 574
e 330 486
e 330 860
e 330 497
e 330 428
e 331 665
e 331 692
e 331 621
e 334 473
e 334 871
e 336 997
e 336 998
e 336 903
e 336 767
e 336 427
e 337 718
e 337 819
e 337 912
e 337 719
e 337 696
e 338 372
e 338 993
e 338 556
e 338 829
e 338 991
e 338 650
e 338 386
e 341 804
e 341 893
e 341 622
e 341 945
e 341 840
e 342 525
e 342 358
e 343 675
e 343 809
e 344 697
e 344 657
e 345 430
e 345 750
e 345 856
e 345 506
e 346 482
e 346 853
e 346 385
e 346 655
e 347 658
e 347 483
e 347 844
e 348 510
e 348 494
e 348 665
e 349 977
e 349 510
e 351 935
e 352 625
e 352 605
e 352 687
e 352 699
e 352 829
e 352 919
e 354 759
e 355 576
e 355 445
e 355 829
e 356 480
e 356 427
e 356 462
e 357 849
e 357 985
e 357 994
e 357 926
e 358 557
e 358 486
e 360 788
e 360 604
e 361 890
e 361 478
e 361 884
e 361 657
e 362 432
e 362 570
e 362 902
e 363 514
e 364 861
e 365 498
e 366 679
e 366 847
e 366 451
e 366 628
e 367 386
e 367 534
e 367 949
e 367 736
e 367 969
e 368 539
e 368 719
e 368 774
e 368 551
e 369 560
e 369 960
e 369 660
e 371 864
e 371 598
e 371 513
e 372 441
e 372 446
e 373 589
e 373 391
e 373 893
e 374 794
e 376 665
e 376 964
e 376 758
e 377 477
e 377 862
e 377 775
e 377 643
e 378 544
e 378 686
e 379 975
e 380 782
e 381 948
e 381 927
e 382 494
e 382 431
e 382 631
e 383 843
e 383 624
e 383 909
e 384 865
e 384 614
e 385 917
e 385 811
e 385 802
e 385 652
e 385 928
e 386 832
e 386 761
e 387 752
e 387 978
e 387 439
e 387 819
e 389 532
e 389 927
e 389 534
e 389 646
e 389 461
e 389 443
e 390 730
e 390 535
e 390 877
e 390 677
e 390 862
e 391 767
e 391 420
e 392 699
e 396 657
e 396 451
e 396 779
e 396 983
e 398 692
e 398 494
e 398 579
e 398 554
e 398 483
e 398 847
e 398 682
e 398 657
e 399 665
e 399 485
e 400 505
e 401 606
e 401 644
e 401 418
e 405 582
e 405 676
e 407 560
e 407 412
e 407 640
e 409 424
e 409 915
e 409 481
e 410 926
e 411 783
e 411 978
e 411 885
e 412 618
e 412 843
e 412 920
e 413 583
e 413 935
e 413 957
e 413 582
e 414 825
e 414 608
e 414 635
e 414 885
e 415 511
e 415 538
e 417 637
e 417 897
e 417 662
e 417 883
e 417 513
e 418 947
e 418 758
e 418 463
e 418 722
e 419 625
e 419 888
e 420 946
e 420 589
e 422 479
e 422 746
e 422 900
e 423 657
e 423 583
e 423 975
e 423 866
e 423 631
e 424 600
e 424 479
e 427 658
e 427 706
e 427 793
e 428 771
e 428 590
e 428 975
e 428 767
e 429 528
e 429 911
e 429 885
e 429 820
e 430 903
e 430 488
e 431 587
e 431 814
e 431 960
e 432 501
e 432 849
e 435 458
e 435 934
e 436 677
e 436 855
e 436 523
e 436 532
e 437 790
e 437 737
e 439 847
e 439 821
e 439 755
e 439 443
e 439 691
e 441 782
e 441 680
e 443 766
e 443 778
e 443 565
e 444 897
e 444 639
e 444 998
e 445 511
e 446 874
e 446 624
e 446 574
e 446 676
e 446 510
e 447 481
e 447 662
e 447 682
e 448 734
e 448 853
e 448 809
e 450 673
e 450 688
e 451 548
e 451 807
e 451 781
e 451 715
e 451 873
e 453 927
e 453 915
e 453 793
e 454 949
e 454 535
e 454 702
e 454 464
e 458 955
e 458 491
e 458 993
e 459 789
e 459 641
e 460 513
e 460 851
e 461 477
e 461 993
e 461 753
e 461 840
e 462 571
e 462 632
e 464 913
e 464 471
e 464 695
e 466 652
e 466 642
e 466 525
e 466 487
e 468 546
e 468 539
e 468 921
e 469 500
e 469 547
e 470 585
e 470 719
e 471 960
e 471 989
e 471 790
e 471 995
e 476 561
e 476 482
e 476 649
e 476 513
e 477 973
e 478 609
e 479 773
e 479 556
e 479 896
e 480 607
e 480 532
e 481 632
e 481 562
e 481 746
e 481 680
e 482 855
e 482 639
e 482 493
e 483 607
e 483 789
e 483 523
e 484 504
e 484 967
e 484 536
e 484 526
e 484 550
e 485 715
e 485 646
e 485 525
e 486 699
e 486 640
e 486 668
e 486 595
e 487 493
e 488 845
e 488 739
e 488 866
e 488 673
e 489 671
e 491 983
e 491 752
e 491 700
e 492 871
e 492 517
e 493 588
e 493 655
e 494 765
e 494 690
e 494 840
e 494 884
e 497 942
e 497 966
e 497 823
e 498 992
e 499 716
e 499 885
e 500 968
e 500 977
e 501 695
e 501 834
e 501 961
e 501 671
e 501 823
e 501 973
e 502 743
e 502 544
e 502 888
e 503 520
e 503 708
e 503 507
e 504 872
e 504 673
e 504 576
e 505 796
e 505 789
e 505 946
e 505 601
e 505 761
e 506 924
e 507 795
e 507 910
e 507 974
e 507 562
e 509 819
e 509 798
e 509 614
e 510 577
e 510 924
e 511 630
e 511 532
e 511 752
e 511 931
e 512 521
e 512 660
e 513 666
e 514 916
e 514 598
e 515 952
e 515 564
e 515 683
e 517 672
e 517 686
e 517 750
e 517 782
e 519 748
e 519 655
e 521 895
e 521 857
e 521 984
e 522 755
e 522 919
e 522 535
e 523 954
e 523 724
e 526 636
e 526 746
e 526 960
e 526 868
e 527 777
e 527 800
e 528 861
e 529 915
e 529 662
e 529 831
e 529 706
e 529 544
e 529 787
e 530 607
e 532 613
e 532 821
e 532 732
e 533 556
e 533 896
e 533 807
e 534 973
e 534 906
e 534 598
e 536 831
e 536 919
e 538 709
e 538 780
e 542 621
e 542 839
e 542 889
e 543 617
e 543 565
e 543 684
e 544 902
e 544 590
e 546 794
e 546 900
e 546 598
e 547 695
e 548 857
e 548 754
e 548 638
e 550 587
e 550 803
e 550 621
e 550 698
e 551 896
e 551 917
e 551 605
e 551 607
e 552 553
e 552 736
e 553 630
e 553 785
e 553 645
e 554 595
e 556 643
e 557 909
e 557 814
e 560 737
e 561 764
e 562 755
e 562 983
e 562 617
e 562 985
e 562 902
e 564 680
e 564 982
e 564 630
e 565 722
e 565 825
e 566 832
e 566 646
e 568 783
e 568 809
e 570 852
e 570 800
e 570 809
e 570 942
e 573 806
e 574 806
e 576 577
e 577 595
e 579 695
e 579 904
e 581 918
e 581 906
e 582 800
e 582 765
e 583 609
e 585 771
e 585 880
e 586 917
e 587 606
e 587 658
e 588 656
e 588 753
e 589 618
e 590 623
e 592 606
e 592 913
e 593 910
e 593 698
e 593 930
e 593 695
e 593 932
e 593 746
e 595 843
e 595 966
e 595 798
e 598 697
e 600 773
e 600 604
e 600 877
e 601 796
e 601 650
e 603 969
e 603 779
e 604 808
e 604 647
e 604 904
e 604 994
e 604 943
e 605 982
e 605 688
e 607 773
e 608 851
e 609 779
e 609 844
e 609 719
e 609 783
e 609 789
e 610 943
e 610 847
e 610 749
e 610 992
e 613 724
e 613 732
e 614 800
e 614 628
e 614 759
e 617 980
e 618 980
e 619 964
e 619 889
e 621 930
e 621 905
e 621 974
e 622 931
e 623 942
e 623 715
e 624 963
e 627 814
e 627 978
e 628 743
e 628 753
e 629 947
e 629 747
e 631 923
e 631 875
e 631 712
e 632 927
e 632 719
e 632 846
e 632 716
e 632 843
e 633 872
e 633 975
e 635 638
e 635 646
e 635 917
e 635 858
e 635 895
e 637 716
e 637 853
e 638 831
e 638 773
e 639 921
e 640 788
e 641 670
e 641 672
e 641 964
e 643 691
e 643 943
e 645 714
e 645 803
e 645 702
e 647 832
e 647 747
e 649 692
e 651 802
e 651 968
e 651 775
e 651 705
e 652 774
e 652 778
e 655 708
e 656 743
e 656 955
e 657 737
e 657 967
e 657 788
e 657 809
e 657 935
e 659 875
e 659 769
e 659 919
e 659 928
e 659 829
e 660 709
e 660 861
e 660 768
e 662 848
e 665 675
e 665 902
e 666 700
e 666 966
e 666 961
e 668 820
e 668 734
e 669 716
e 669 848
e 670 859
e 671 767
e 673 954
e 673 912
e 675 805
e 676 976
e 677 874
e 677 918
e 679 871
e 680 825
e 682 713
e 682 993
e 682 831
e 683 957
e 685 861
e 685 824
e 686 789
e 689 940
e 690 952
e 691 880
e 691 984
e 691 839
e 691 708
e 692 890
e 695 886
e 695 917
e 696 824
e 697 829
e 700 826
e 700 985
e 702 945
e 705 766
e 705 852
e 705 787
e 706 911
e 707 738
e 708 957
e 708 808
e 709 895
e 712 916
e 714 814
e 714 767
e 714 845
e 714 852
e 714 716
e 715 809
e 715 783
e 718 719
e 718 923
e 719 730
e 719 972
e 720 849
e 720 946
e 722 885
e 722 865
e 722 849
e 729 974
e 729 889
e 734 814
e 734 852
e 737 834
e 737 807
e 738 753
e 749 846
e 749 793
e 750 787
e 754 954
e 760 982
e 760 927
e 760 831
e 761 780
e 761 993
e 764 974
e 764 895
e 765 821
e 765 989
e 765 826
e 766 829
e 767 826
e 768 999
e 769 806
e 771 868
e 777 916
e 777 939
e 777 888
e 777 931
e 778 991
e 779 903
e 779 805
e 779 953
e 780 844
e 780 915
e 782 852
e 785 969
e 787 978
e 788 864
e 793 926
e 795 893
e 796 819
e 798 972
e 798 923
e 802 972
e 802 924
e 803 821
e 803 853
e 803 913
e 804 812
e 805 806
e 805 889
e 806 941
e 807 877
e 808 812
e 808 963
e 812 931
e 814 826
e 814 999
e 816 858
e 823 873
e 824 855
e 824 921
e 825 934
e 825 991
e 826 914
e 826 855
e 826 935
e 829 946
e 829 949
e 829 924
e 831 964
e 831 932
e 834 916
e 837 884
e 837 931
e 841 859
e 841 890
e 846 883
e 848 980
e 849 935
e 849 912
e 850 897
e 850 983
e 853 999
e 855 948
e 858 913
e 860 934
e 860 909
e 863 979
e 864 972
e 865 989
e 868 994
e 871 913
e 871 973
e 872 940
e 874 928
e 880 940
e 882 908
e 888 945
e 895 992
e 902 980
e 903 967
e 905 911
e 908 985
e 908 915
e 908 992
e 910 963
e 911 919
e 914 924
e 914 961
e 917 924
e 923 980
e 926 979
e 926 1000
e 927 940
e 928 982
e 931 1000
e 947 948
e 955 998
e 972 1000
